NAME: IntegralityGap_HardInstane_a3_b2_c3_Generated
TYPE: TSP
COMMENT: Generated instance
DIMENSION: 11
EDGE_WEIGHT_TYPE: EXPLICIT
EDGE_WEIGHT_FORMAT: FULL_MATRIX
EDGE_WEIGHT_SECTION
0 6 12 18 15 24 33 12 18 24 30 
6 0 6 12 21 30 27 18 24 30 24 
12 6 0 6 27 30 21 24 30 24 18 
18 12 6 0 33 24 15 30 24 18 12 
15 21 27 33 0 9 18 15 21 27 33 
24 30 30 24 9 0 9 24 30 30 24 
33 27 21 15 18 9 0 33 27 21 15 
12 18 24 30 15 24 33 0 6 12 18 
18 24 30 24 21 30 27 6 0 6 12 
24 30 24 18 27 30 21 12 6 0 6 
30 24 18 12 33 24 15 18 12 6 0 
EOF
